
  12    4
  10   10   10   10

   0   0   0   0   0   2 2 3 
   8  10  10  10  10   2 6 4 
   8  10  10  10  10   1 4 
   3  10  10  10  10   2 7 5 
   4  10  10  10  10   2 10 8 
   9  10  10  10  10   2 10 8 
   2  10  10  10  10   2 10 9 
   8  10  10  10  10   1 9 
   3  10  10  10  10   1 11 
   1  10  10  10  10   1 11 
  10  10  10  10  10   1 12
   0   0   0   0   0   0 
